results_rootrelaxation/bin018_050_026.srr.sol
solution status: optimal solution found
objective value:                                    0
_var361_                            0.171190231502261 	(obj:0)
_var1262_                           0.182023361314998 	(obj:0)
_var1351_                              0.152540530118 	(obj:0)
_var2741_                            0.13273121391797 	(obj:0)
_var2742_                         0.00429205644098833 	(obj:0)
_var2749_                           0.205156179522656 	(obj:0)
_var2757_                           0.169302213214935 	(obj:0)
_var2760_                          0.0709423676852762 	(obj:0)
_var2762_                           0.152777706444114 	(obj:0)
_var2764_                            0.25920945183302 	(obj:0)
_var2765_                          0.0935924438844341 	(obj:0)
_var2767_                           0.159640755277929 	(obj:0)
_var2769_                           0.104727329997759 	(obj:0)
_var2771_                            0.13164752238937 	(obj:0)
_var2773_                           0.116016524061227 	(obj:0)
_var2776_                           0.150601743857479 	(obj:0)
_var2780_                           0.168183306052272 	(obj:0)
_var2784_                           0.128919390481253 	(obj:0)
_var2785_                          0.0398609179166322 	(obj:0)
_var2786_                           0.124275005067881 	(obj:0)
_var2795_                           0.116444973828569 	(obj:0)
_var2801_                           0.193253775210474 	(obj:0)
_var2806_                           0.331136141427936 	(obj:0)
_var2807_                           0.263673076999083 	(obj:0)
_var2808_                          0.0536391922282611 	(obj:0)
_var2825_                           0.363450038434077 	(obj:0)
_var2828_                            0.32588682140859 	(obj:0)
_var2829_                          0.0429354954222556 	(obj:0)
_var2832_                          0.0345384482537835 	(obj:0)
_var2833_                          0.0156910782312364 	(obj:0)
_var2836_                          0.0559445516881635 	(obj:0)
_var2837_                         0.000932329175116792 	(obj:0)
_var2838_                           0.272846386927741 	(obj:0)
_var2841_                          0.0210520452148228 	(obj:0)
_var2844_                          0.0537776722455649 	(obj:0)
_var2845_                          0.0803041813983228 	(obj:0)
_var2846_                           0.305186366841788 	(obj:0)
_var2847_                          0.0561247198829937 	(obj:0)
_var2848_                          0.0101415037656388 	(obj:0)
_var2850_                           0.115347161107296 	(obj:0)
_var2851_                           0.247198922401684 	(obj:0)
_var2852_                          0.0150537353688499 	(obj:0)
_var2853_                          0.0878221827182069 	(obj:0)
_var2855_                           0.100458680112491 	(obj:0)
_var2859_                           0.224355078415458 	(obj:0)
_var2861_                            0.14160354696591 	(obj:0)
_var2866_                          0.0445787635100037 	(obj:0)
_var2870_                         0.00925527793143206 	(obj:0)
_var2873_                           0.235133163078073 	(obj:0)
_var2877_                          0.0516797651556123 	(obj:0)
_var2879_                          0.0353605361019633 	(obj:0)
_var2882_                          0.0375286348005303 	(obj:0)
_var2884_                            0.12421363201704 	(obj:0)
_var2887_                          0.0920441761207555 	(obj:0)
_var2888_                           0.103446678686205 	(obj:0)
_var2889_                           0.253808741466315 	(obj:0)
_var2891_                            0.13114949478871 	(obj:0)
_var2892_                           0.167584112878738 	(obj:0)
_var2894_                           0.145814941160258 	(obj:0)
_var2897_                           0.181980928796958 	(obj:0)
_var2899_                          0.0477026739102893 	(obj:0)
_var2901_                          0.0878509419744975 	(obj:0)
_var2902_                           0.295330889484301 	(obj:0)
_var2903_                          0.0850391817702801 	(obj:0)
_var2907_                           0.078765279229776 	(obj:0)
_var2912_                           0.235815172670998 	(obj:0)
_var2914_                          0.0674554639848396 	(obj:0)
_var2917_                          0.0592038631293609 	(obj:0)
_var2918_                          0.0997449933171099 	(obj:0)
_var2921_                          0.0612807493828192 	(obj:0)
_var2922_                          0.0310696269963474 	(obj:0)
_var2926_                          0.0662965658416507 	(obj:0)
_var2928_                           0.216748391714902 	(obj:0)
_var2929_                           0.056487151632519 	(obj:0)
_var2930_                           0.101525924407992 	(obj:0)
_var2932_                          0.0945077370096423 	(obj:0)
_var2934_                          0.0674733272609758 	(obj:0)
_var2935_                          0.0214642797136596 	(obj:0)
_var2937_                           0.350069123194936 	(obj:0)
_var2938_                           0.134700758409737 	(obj:0)
_var2941_                           0.174269402665344 	(obj:0)
_var2942_                           0.120666486201986 	(obj:0)
_var2946_                           0.083780062198637 	(obj:0)
_var2947_                          0.0570012373428072 	(obj:0)
_var2948_                           0.201092439471488 	(obj:0)
_var2949_                           0.224065567607998 	(obj:0)
_var2950_                           0.187791294066039 	(obj:0)
_var2951_                         0.000898528231466716 	(obj:0)
_var2955_                          0.0307270299129045 	(obj:0)
_var2956_                           0.345355822830791 	(obj:0)
_var2958_                         0.00887286304675877 	(obj:0)
_var2959_                          0.0965980054738209 	(obj:0)
_var2960_                          0.0584048491697654 	(obj:0)
_var2963_                           0.160443129372417 	(obj:0)
_var2964_                          0.0608784611935193 	(obj:0)
_var2965_                          0.0390272617746179 	(obj:0)
_var2966_                          0.0477032160925384 	(obj:0)
_var2968_                            0.23682738197566 	(obj:0)
_var2969_                           0.282863727845449 	(obj:0)
_var2972_                          0.0414143745739277 	(obj:0)
_var2973_                         0.00856253488913877 	(obj:0)
_var2975_                          0.0589072735841783 	(obj:0)
_var2979_                          0.0130113099576053 	(obj:0)
_var2983_                          0.0641444557005025 	(obj:0)
_var2984_                            0.17819754465777 	(obj:0)
_var2985_                           0.200073665444733 	(obj:0)
_var2986_                           0.138032881762163 	(obj:0)
_var2989_                           0.204613229145052 	(obj:0)
_var2990_                          0.0584026050146035 	(obj:0)
_var2991_                           0.100196681723271 	(obj:0)
_var2992_                           0.116913122628402 	(obj:0)
_var2993_                          0.0874946733843015 	(obj:0)
_var2994_                            0.11982302376043 	(obj:0)
_var2995_                          0.0177394604164713 	(obj:0)
_var2997_                         0.00415682015553025 	(obj:0)
_var2998_                           0.100712187252207 	(obj:0)
_var3000_                          0.0604189307383857 	(obj:0)
_var3001_                          0.0595984115251806 	(obj:0)
_var3002_                          0.0715609135633832 	(obj:0)
_var3003_                          0.0211988601471191 	(obj:0)
_var3005_                           0.037545622040571 	(obj:0)
_var3006_                           0.121863258815378 	(obj:0)
_var3008_                          0.0133168315390817 	(obj:0)
_var3009_                           0.122011176765237 	(obj:0)
_var3010_                          0.0868214184882324 	(obj:0)
_var3014_                          0.0406671729398889 	(obj:0)
_var3017_                           0.112192753641631 	(obj:0)
_var3018_                           0.186789003155856 	(obj:0)
_var3021_                           0.121723780289266 	(obj:0)
_var3024_                           0.223228067342157 	(obj:0)
_var3025_                           0.112378671962742 	(obj:0)
_var3026_                           0.046165136873959 	(obj:0)
_var3027_                           0.146133780235013 	(obj:0)
_var3028_                           0.187149802074285 	(obj:0)
_var3029_                           0.171514017290798 	(obj:0)
_var3031_                          0.0470295701502121 	(obj:0)
_var3032_                           0.167388283209322 	(obj:0)
_var3035_                          0.0988148855492563 	(obj:0)
_var3038_                          0.0654437837064412 	(obj:0)
_var3039_                          0.0304784166557061 	(obj:0)
_var3040_                           0.109923717468364 	(obj:0)
_var3047_                          0.0868007852763958 	(obj:0)
_var3052_                          0.0252527425171666 	(obj:0)
_var3055_                          0.0531297490090666 	(obj:0)
_var3057_                          0.0105497759166304 	(obj:0)
_var3059_                           0.146994006268359 	(obj:0)
_var3060_                          0.0273150597389002 	(obj:0)
_var3065_                           0.021345901369855 	(obj:0)
_var3067_                          0.0458770698794853 	(obj:0)
_var3068_                          0.0355243827641916 	(obj:0)
_var3070_                          0.0256356567976129 	(obj:0)
_var3072_                           0.012016695586585 	(obj:0)
