results_rootrelaxation/bin018_050_026.srr.log
SCIP version 8.0.3.5 [precision: 8 byte] [memory: block] [mode: optimized] [LP solver: Soplex 6.0.1.3] [GitHash: 438792519e]
Copyright (c) 2002-2023 Zuse Institute Berlin (ZIB)

External libraries: 
  Readline 8.1         GNU library for command line editing (gnu.org/s/readline)
  Soplex 6.0.1.3       Linear Programming Solver developed at Zuse Institute Berlin (soplex.zib.de) [GitHash: 713be0fe]
  CppAD 20180000.0     Algorithmic Differentiation of C++ algorithms developed by B. Bell (github.com/coin-or/CppAD)
  ZLIB 1.2.11          General purpose compression library by J. Gailly and M. Adler (zlib.net)
  bliss 0.77           Computing Graph Automorphism Groups by T. Junttila and P. Kaski (www.tcs.hut.fi/Software/bliss/)

user parameter file <scip.set> not found - using default parameters

srr/relaxation = TRUE

read problem <instances/bin018_050_026.srr>
============

Original problem: 
original problem has 0 variables (0 bin, 0 int, 0 impl, 0 cont) and 170 constraints

presolving:
presolving (1 rounds: 1 fast, 1 medium, 1 exhaustive):
 0 deleted vars, 0 deleted constraints, 0 added constraints, 0 tightened bounds, 0 added holes, 0 changed sides, 0 changed coefficients
 0 implications, 0 cliques
presolved problem has 0 variables (0 bin, 0 int, 0 impl, 0 cont) and 170 constraints
    170 constraints of type <linear>
Presolving Time: 0.00

 time | node  | left  |LP iter|LP it/n|mem/heur|mdpt |vars |cons |rows |cuts |sepa|confs|strbr|  dualbound   | primalbound  |  gap   | compl. 
  0.0s|     1 |     0 |     1 |     - |   922k |   0 |   1 | 170 | 170 |   0 |  0 |   0 |   0 |      --      |      --      |    Inf | unknown
  0.2s|     1 |     0 |  1220 |     - |  7101k |   0 |1617 | 170 | 170 |   0 |  0 |   0 |   0 |      --      |      --      |    Inf | unknown
r 0.8s|     1 |     0 |  6052 |     - |simplero|   0 |2739 | 170 | 170 |   0 |  0 |   0 |   0 |      --      | 3.340180e+01 |    Inf | unknown
r 0.9s|     1 |     0 |  6128 |     - |simplero|   0 |2756 | 170 | 170 |   0 |  0 |   0 |   0 |      --      | 3.190993e+01 |    Inf | unknown
r 0.9s|     1 |     0 |  6219 |     - |simplero|   0 |2773 | 170 | 170 |   0 |  0 |   0 |   0 |      --      | 2.898288e+01 |    Inf | unknown
r 0.9s|     1 |     0 |  6302 |     - |simplero|   0 |2790 | 170 | 170 |   0 |  0 |   0 |   0 |      --      | 2.706142e+01 |    Inf | unknown
r 0.9s|     1 |     0 |  6337 |     - |simplero|   0 |2790 | 170 | 170 |   0 |  0 |   0 |   0 |      --      | 2.665588e+01 |    Inf | unknown
r 0.9s|     1 |     0 |  6339 |     - |simplero|   0 |2790 | 170 | 170 |   0 |  0 |   0 |   0 |      --      | 2.665148e+01 |    Inf | unknown
r 0.9s|     1 |     0 |  6410 |     - |simplero|   0 |2807 | 170 | 170 |   0 |  0 |   0 |   0 |      --      | 2.554209e+01 |    Inf | unknown
r 0.9s|     1 |     0 |  6414 |     - |simplero|   0 |2807 | 170 | 170 |   0 |  0 |   0 |   0 |      --      | 2.553142e+01 |    Inf | unknown
r 0.9s|     1 |     0 |  6590 |     - |simplero|   0 |2824 | 170 | 170 |   0 |  0 |   0 |   0 |      --      | 2.286754e+01 |    Inf | unknown
r 0.9s|     1 |     0 |  6607 |     - |simplero|   0 |2824 | 170 | 170 |   0 |  0 |   0 |   0 |      --      | 2.284886e+01 |    Inf | unknown
r 0.9s|     1 |     0 |  6631 |     - |simplero|   0 |2824 | 170 | 170 |   0 |  0 |   0 |   0 |      --      | 2.281387e+01 |    Inf | unknown
r 1.0s|     1 |     0 |  6633 |     - |simplero|   0 |2824 | 170 | 170 |   0 |  0 |   0 |   0 |      --      | 2.281386e+01 |    Inf | unknown
r 1.0s|     1 |     0 |  6756 |     - |simplero|   0 |2841 | 170 | 170 |   0 |  0 |   0 |   0 |      --      | 2.093677e+01 |    Inf | unknown
 time | node  | left  |LP iter|LP it/n|mem/heur|mdpt |vars |cons |rows |cuts |sepa|confs|strbr|  dualbound   | primalbound  |  gap   | compl. 
r 1.0s|     1 |     0 |  6845 |     - |simplero|   0 |2841 | 170 | 170 |   0 |  0 |   0 |   0 |      --      | 2.013266e+01 |    Inf | unknown
r 1.0s|     1 |     0 |  6864 |     - |simplero|   0 |2841 | 170 | 170 |   0 |  0 |   0 |   0 |      --      | 2.012722e+01 |    Inf | unknown
r 1.0s|     1 |     0 |  7019 |     - |simplero|   0 |2858 | 170 | 170 |   0 |  0 |   0 |   0 |      --      | 1.727964e+01 |    Inf | unknown
r 1.0s|     1 |     0 |  7102 |     - |simplero|   0 |2858 | 170 | 170 |   0 |  0 |   0 |   0 |      --      | 1.635387e+01 |    Inf | unknown
r 1.0s|     1 |     0 |  7143 |     - |simplero|   0 |2858 | 170 | 170 |   0 |  0 |   0 |   0 |      --      | 1.624951e+01 |    Inf | unknown
r 1.0s|     1 |     0 |  7144 |     - |simplero|   0 |2858 | 170 | 170 |   0 |  0 |   0 |   0 |      --      | 1.624951e+01 |    Inf | unknown
r 1.0s|     1 |     0 |  7342 |     - |simplero|   0 |2875 | 170 | 170 |   0 |  0 |   0 |   0 |      --      | 1.349329e+01 |    Inf | unknown
r 1.1s|     1 |     0 |  7381 |     - |simplero|   0 |2875 | 170 | 170 |   0 |  0 |   0 |   0 |      --      | 1.335190e+01 |    Inf | unknown
r 1.1s|     1 |     0 |  7525 |     - |simplero|   0 |2892 | 170 | 170 |   0 |  0 |   0 |   0 |      --      | 1.141694e+01 |    Inf | unknown
r 1.1s|     1 |     0 |  7573 |     - |simplero|   0 |2892 | 170 | 170 |   0 |  0 |   0 |   0 |      --      | 1.121636e+01 |    Inf | unknown
r 1.1s|     1 |     0 |  7585 |     - |simplero|   0 |2892 | 170 | 170 |   0 |  0 |   0 |   0 |      --      | 1.120815e+01 |    Inf | unknown
r 1.1s|     1 |     0 |  7588 |     - |simplero|   0 |2892 | 170 | 170 |   0 |  0 |   0 |   0 |      --      | 1.120742e+01 |    Inf | unknown
r 1.1s|     1 |     0 |  7752 |     - |simplero|   0 |2909 | 170 | 170 |   0 |  0 |   0 |   0 |      --      | 9.617557e+00 |    Inf | unknown
r 1.1s|     1 |     0 |  7820 |     - |simplero|   0 |2909 | 170 | 170 |   0 |  0 |   0 |   0 |      --      | 9.255674e+00 |    Inf | unknown
r 1.1s|     1 |     0 |  7830 |     - |simplero|   0 |2909 | 170 | 170 |   0 |  0 |   0 |   0 |      --      | 9.248152e+00 |    Inf | unknown
 time | node  | left  |LP iter|LP it/n|mem/heur|mdpt |vars |cons |rows |cuts |sepa|confs|strbr|  dualbound   | primalbound  |  gap   | compl. 
r 1.1s|     1 |     0 |  7837 |     - |simplero|   0 |2909 | 170 | 170 |   0 |  0 |   0 |   0 |      --      | 9.244404e+00 |    Inf | unknown
r 1.1s|     1 |     0 |  7998 |     - |simplero|   0 |2926 | 170 | 170 |   0 |  0 |   0 |   0 |      --      | 7.487122e+00 |    Inf | unknown
r 1.2s|     1 |     0 |  8077 |     - |simplero|   0 |2926 | 170 | 170 |   0 |  0 |   0 |   0 |      --      | 7.310465e+00 |    Inf | unknown
r 1.2s|     1 |     0 |  8099 |     - |simplero|   0 |2926 | 170 | 170 |   0 |  0 |   0 |   0 |      --      | 7.295649e+00 |    Inf | unknown
  1.2s|     1 |     0 |  8252 |     - |    14M |   0 |2943 | 170 | 170 |   0 |  0 |   0 |   0 |      --      | 7.295649e+00 |    Inf | unknown
r 1.2s|     1 |     0 |  8252 |     - |simplero|   0 |2943 | 170 | 170 |   0 |  0 |   0 |   0 |      --      | 5.863731e+00 |    Inf | unknown
r 1.2s|     1 |     0 |  8277 |     - |simplero|   0 |2943 | 170 | 170 |   0 |  0 |   0 |   0 |      --      | 5.799950e+00 |    Inf | unknown
r 1.2s|     1 |     0 |  8284 |     - |simplero|   0 |2943 | 170 | 170 |   0 |  0 |   0 |   0 |      --      | 5.798066e+00 |    Inf | unknown
r 1.2s|     1 |     0 |  8386 |     - |simplero|   0 |2960 | 170 | 170 |   0 |  0 |   0 |   0 |      --      | 4.947463e+00 |    Inf | unknown
r 1.2s|     1 |     0 |  8399 |     - |simplero|   0 |2960 | 170 | 170 |   0 |  0 |   0 |   0 |      --      | 4.923423e+00 |    Inf | unknown
r 1.2s|     1 |     0 |  8409 |     - |simplero|   0 |2960 | 170 | 170 |   0 |  0 |   0 |   0 |      --      | 4.914818e+00 |    Inf | unknown
r 1.2s|     1 |     0 |  8410 |     - |simplero|   0 |2960 | 170 | 170 |   0 |  0 |   0 |   0 |      --      | 4.914795e+00 |    Inf | unknown
r 1.2s|     1 |     0 |  8529 |     - |simplero|   0 |2977 | 170 | 170 |   0 |  0 |   0 |   0 |      --      | 4.229884e+00 |    Inf | unknown
r 1.2s|     1 |     0 |  8622 |     - |simplero|   0 |2977 | 170 | 170 |   0 |  0 |   0 |   0 |      --      | 3.925705e+00 |    Inf | unknown
r 1.3s|     1 |     0 |  8644 |     - |simplero|   0 |2977 | 170 | 170 |   0 |  0 |   0 |   0 |      --      | 3.881740e+00 |    Inf | unknown
 time | node  | left  |LP iter|LP it/n|mem/heur|mdpt |vars |cons |rows |cuts |sepa|confs|strbr|  dualbound   | primalbound  |  gap   | compl. 
r 1.3s|     1 |     0 |  8785 |     - |simplero|   0 |2994 | 170 | 170 |   0 |  0 |   0 |   0 |      --      | 2.996109e+00 |    Inf | unknown
r 1.3s|     1 |     0 |  8820 |     - |simplero|   0 |2994 | 170 | 170 |   0 |  0 |   0 |   0 |      --      | 2.943084e+00 |    Inf | unknown
r 1.3s|     1 |     0 |  8826 |     - |simplero|   0 |2994 | 170 | 170 |   0 |  0 |   0 |   0 |      --      | 2.942000e+00 |    Inf | unknown
r 1.3s|     1 |     0 |  8907 |     - |simplero|   0 |3011 | 170 | 170 |   0 |  0 |   0 |   0 |      --      | 2.255054e+00 |    Inf | unknown
r 1.3s|     1 |     0 |  8978 |     - |simplero|   0 |3011 | 170 | 170 |   0 |  0 |   0 |   0 |      --      | 1.810565e+00 |    Inf | unknown
r 1.3s|     1 |     0 |  8994 |     - |simplero|   0 |3011 | 170 | 170 |   0 |  0 |   0 |   0 |      --      | 1.777998e+00 |    Inf | unknown
r 1.3s|     1 |     0 |  9009 |     - |simplero|   0 |3011 | 170 | 170 |   0 |  0 |   0 |   0 |      --      | 1.766627e+00 |    Inf | unknown
r 1.3s|     1 |     0 |  9080 |     - |simplero|   0 |3028 | 170 | 170 |   0 |  0 |   0 |   0 |      --      | 1.259512e+00 |    Inf | unknown
r 1.3s|     1 |     0 |  9113 |     - |simplero|   0 |3028 | 170 | 170 |   0 |  0 |   0 |   0 |      --      | 1.219253e+00 |    Inf | unknown
r 1.4s|     1 |     0 |  9202 |     - |simplero|   0 |3045 | 170 | 170 |   0 |  0 |   0 |   0 |      --      | 6.777900e-01 |    Inf | unknown
r 1.4s|     1 |     0 |  9225 |     - |simplero|   0 |3045 | 170 | 170 |   0 |  0 |   0 |   0 |      --      | 6.270333e-01 |    Inf | unknown
r 1.4s|     1 |     0 |  9228 |     - |simplero|   0 |3045 | 170 | 170 |   0 |  0 |   0 |   0 |      --      | 6.268080e-01 |    Inf | unknown
r 1.4s|     1 |     0 |  9229 |     - |simplero|   0 |3045 | 170 | 170 |   0 |  0 |   0 |   0 |      --      | 6.266189e-01 |    Inf | unknown
r 1.4s|     1 |     0 |  9291 |     - |simplero|   0 |3062 | 170 | 170 |   0 |  0 |   0 |   0 |      --      | 1.072615e-01 |    Inf | unknown
r 1.4s|     1 |     0 |  9315 |     - |simplero|   0 |3062 | 170 | 170 |   0 |  0 |   0 |   0 |      --      | 8.988323e-02 |    Inf | unknown
 time | node  | left  |LP iter|LP it/n|mem/heur|mdpt |vars |cons |rows |cuts |sepa|confs|strbr|  dualbound   | primalbound  |  gap   | compl. 
r 1.4s|     1 |     0 |  9321 |     - |simplero|   0 |3062 | 170 | 170 |   0 |  0 |   0 |   0 |      --      | 8.858757e-02 |    Inf | unknown
r 1.4s|     1 |     0 |  9365 |     - |simplero|   0 |3079 | 170 | 170 |   0 |  0 |   0 |   0 |      --      | 0.000000e+00 |    Inf | unknown
  1.4s|     1 |     0 |  9365 |     - |    17M |   0 |3079 | 170 | 170 |   0 |  0 |   0 |   0 | 0.000000e+00 | 0.000000e+00 |   0.00%| unknown
  1.4s|     1 |     0 |  9365 |     - |    17M |   0 |3079 | 170 | 170 |   0 |  0 |   0 |   0 | 0.000000e+00 | 0.000000e+00 |   0.00%| unknown

SCIP Status        : problem is solved [optimal solution found]
Solving Time (sec) : 1.41
Solving Nodes      : 1
Primal Bound       : +0.00000000000000e+00 (59 solutions)
Dual Bound         : +0.00000000000000e+00
Gap                : 0.00 %

written transformed problem to file <results_rootrelaxation/bin018_050_026.srr.lp>
written transformed problem to file <results_rootrelaxation/bin018_050_026.srr.cip>

written solution information to file <results_rootrelaxation/bin018_050_026.srr.sol>



